
Log started (V12.10.0.0) Thu Apr  8 18:15:16 2021


Problem 'asset.lp' read.
Read time = 0.00 sec. (0.03 ticks)
New value for default parallel thread count: 1
New value for time limit in seconds: 200
Version identifier: 12.10.0.0 | 2019-11-26 | 843d4de
CPXPARAM_Threads                                 1
CPXPARAM_TimeLimit                               200
Found incumbent of value -0.911789 after 0.00 sec. (0.02 ticks)
Tried aggregator 4 times.
MIP Presolve eliminated 298 rows and 256 columns.
MIP Presolve modified 214 coefficients.
Aggregator did 34 substitutions.
Reduced MIP has 54 rows, 54 columns, and 176 nonzeros.
Reduced MIP has 42 binaries, 7 generals, 0 SOSs, and 0 indicators.
Presolve time = 0.00 sec. (0.69 ticks)
Probing fixed 6 vars, tightened 1 bounds.
Probing time = 0.00 sec. (0.05 ticks)
Cover probing fixed 0 vars, tightened 1 bounds.
Tried aggregator 1 time.
MIP Presolve eliminated 15 rows and 13 columns.
Reduced MIP has 39 rows, 39 columns, and 105 nonzeros.
Reduced MIP has 30 binaries, 4 generals, 0 SOSs, and 0 indicators.
Presolve time = 0.00 sec. (0.10 ticks)
Probing time = 0.00 sec. (0.02 ticks)
Tried aggregator 1 time.
Detecting symmetries...
MIP Presolve modified 2 coefficients.
Reduced MIP has 39 rows, 39 columns, and 105 nonzeros.
Reduced MIP has 30 binaries, 4 generals, 0 SOSs, and 0 indicators.
Presolve time = 0.00 sec. (0.07 ticks)
Probing time = 0.00 sec. (0.02 ticks)
Clique table members: 13.
MIP emphasis: balance optimality and feasibility.
MIP search method: dynamic search.
Parallel mode: none, using 1 thread.
Root relaxation solution time = 0.00 sec. (0.10 ticks)

        Nodes                                         Cuts/
   Node  Left     Objective  IInf  Best Integer    Best Bound    ItCnt     Gap

*     0+    0                           -0.9118       56.7340              --- 
      0     0       55.9998    15       -0.9118       55.9998       17     --- 
*     0+    0                           47.8027       55.9998            17.15%
      0     0       49.4941    15       47.8027      Cuts: 13       25    3.54%
*     0+    0                           49.4916       49.4941             0.00%

Clique cuts applied:  5
Implied bound cuts applied:  1
Lift and project cuts applied:  1
Gomory fractional cuts applied:  2

Root node processing (before b&c):
  Real time             =    0.00 sec. (1.72 ticks)
Sequential b&c:
  Real time             =    0.00 sec. (0.00 ticks)
                          ------------
Total (root+branch&cut) =    0.00 sec. (1.72 ticks)

Solution pool: 3 solutions saved.

MIP - Integer optimal, tolerance (0.0001/1e-06):  Objective =  4.9491601109e+01
Current MIP best bound =  4.9494075423e+01 (gap = 0.00247431, 0.00%)
Solution time =    0.01 sec.  Iterations = 25  Nodes = 0 (1)
Deterministic time = 1.72 ticks  (343.01 ticks/sec)


Incumbent solution
Variable Name           Solution Value
F                            60.000000
f1                            0.928399
f2                            9.580000
y10                           1.000000
y153                          1.000000
y69                           1.000000
y156                          1.000000
y66                           1.000000
s10                           6.841639
s18                           6.000000
s19                           6.000000
s21                           6.000000
s23                           6.000000
s29                           6.000000
s32                           6.000000
s40                           6.000000
s50                           6.000000
s58                           6.000000
s67                           6.000000
s71                           6.000000
s73                           6.000000
s82                           6.000000
s92                           6.000000
s103                          6.000000
s104                          6.000000
s117                          6.000000
s121                          6.000000
s127                          6.000000
s133                          6.000000
s136                          6.000000
s140                          6.000000
s153                          6.976970
s158                          6.000000
s171                          6.000000
s69                           6.979878
s147                          6.810000
s156                          7.200210
s66                           7.168645
x106x156x1                    1.000000
x106x66x1                     1.000000
x107x153x1                    1.000000
x107x69x1                     1.000000
x109x153x1                    1.000000
x109x69x1                     1.000000
x43x156x2                     1.000000
x43x66x2                      1.000000
x83x10x2                      1.000000
x122x10x3                     1.000000
x10x0x2                       1.000000
x10x0x3                       1.000000
x153x0x1                      2.000000
x69x0x1                       2.000000
x156x0x1                      1.000000
x156x0x2                      1.000000
x66x0x1                       1.000000
x66x0x2                       1.000000
s106                          5.722712
z106z156z1                    1.000000
z106z66z1                     1.000000
s107                          5.550230
z107z153z1                    1.000000
z107z69z1                     1.000000
s122                          5.178070
z122z10z3                     1.000000
s137                          5.170190
s109                          5.214340
z109z153z1                    1.000000
z109z69z1                     1.000000
s7                            5.270000
s43                           5.259140
z43z156z2                     1.000000
z43z66z2                      1.000000
s83                           5.226490
z83z10z2                      1.000000
All other variables in the range 1-345 are 0.
